NAME          DCAP_2_4_3_200_SS5
ROWS
 N  OBJ
 L  CON1
 L  CON2
 L  CON3
 L  CON4
 L  CON5
 L  CON6
 L  CON7
 L  CON8
 L  CON9
 L  CON10
 L  CON11
 L  CON12
 E  CON13
 E  CON14
 E  CON15
 E  CON16
 E  CON17
 E  CON18
 E  CON19
 E  CON20
 E  CON21
 E  CON22
 E  CON23
 E  CON24
COLUMNS
    x[1,1]    OBJ       6.180167      CON1      1.000000    
    x[1,1]    CON7      -1.000000     CON8      -1.000000   
    x[1,1]    CON9      -1.000000   
    x[1,2]    OBJ       6.563535      CON2      1.000000    
    x[1,2]    CON8      -1.000000     CON9      -1.000000   
    x[1,3]    OBJ       7.443064      CON3      1.000000    
    x[1,3]    CON9      -1.000000   
    x[2,1]    OBJ       6.732585      CON4      1.000000    
    x[2,1]    CON10     -1.000000     CON11     -1.000000   
    x[2,1]    CON12     -1.000000   
    x[2,2]    OBJ       5.039546      CON5      1.000000    
    x[2,2]    CON11     -1.000000     CON12     -1.000000   
    x[2,3]    OBJ       6.054841      CON6      1.000000    
    x[2,3]    CON12     -1.000000   
    MARKER    'MARKER'                'INTORG'
    u[1,1]    OBJ       48.076654     CON1      -1.000000   
    u[1,2]    OBJ       20.066487     CON2      -1.000000   
    u[1,3]    OBJ       32.230043     CON3      -1.000000   
    u[2,1]    OBJ       49.996186     CON4      -1.000000   
    u[2,2]    OBJ       49.466655     CON5      -1.000000   
    u[2,3]    OBJ       27.484319     CON6      -1.000000   
    y[1,1,1]  OBJ       8.067234      CON7      0.948592    
    y[1,1,1]  CON13     1.000000    
    y[1,1,2]  OBJ       9.129300      CON8      0.829544    
    y[1,1,2]  CON14     1.000000    
    y[1,1,3]  OBJ       7.582467      CON9      0.926892    
    y[1,1,3]  CON15     1.000000    
    y[1,2,1]  OBJ       7.544525      CON7      0.873775    
    y[1,2,1]  CON16     1.000000    
    y[1,2,2]  OBJ       7.502515      CON8      1.287614    
    y[1,2,2]  CON17     1.000000    
    y[1,2,3]  OBJ       5.041952      CON9      1.355331    
    y[1,2,3]  CON18     1.000000    
    y[1,3,1]  OBJ       6.052483      CON7      1.287453    
    y[1,3,1]  CON19     1.000000    
    y[1,3,2]  OBJ       5.157034      CON8      1.476957    
    y[1,3,2]  CON20     1.000000    
    y[1,3,3]  OBJ       8.028811      CON9      0.578529    
    y[1,3,3]  CON21     1.000000    
    y[1,4,1]  OBJ       9.733604      CON7      0.922895    
    y[1,4,1]  CON22     1.000000    
    y[1,4,2]  OBJ       9.434788      CON8      0.634236    
    y[1,4,2]  CON23     1.000000    
    y[1,4,3]  OBJ       7.301834      CON9      1.115210    
    y[1,4,3]  CON24     1.000000    
    y[2,1,1]  OBJ       7.730800      CON10     0.948592    
    y[2,1,1]  CON13     1.000000    
    y[2,1,2]  OBJ       8.052784      CON11     0.829544    
    y[2,1,2]  CON14     1.000000    
    y[2,1,3]  OBJ       8.369456      CON12     0.926892    
    y[2,1,3]  CON15     1.000000    
    y[2,2,1]  OBJ       8.971768      CON10     0.873775    
    y[2,2,1]  CON16     1.000000    
    y[2,2,2]  OBJ       8.367233      CON11     1.287614    
    y[2,2,2]  CON17     1.000000    
    y[2,2,3]  OBJ       8.813522      CON12     1.355331    
    y[2,2,3]  CON18     1.000000    
    y[2,3,1]  OBJ       6.954439      CON10     1.287453    
    y[2,3,1]  CON19     1.000000    
    y[2,3,2]  OBJ       8.028206      CON11     1.476957    
    y[2,3,2]  CON20     1.000000    
    y[2,3,3]  OBJ       9.702311      CON12     0.578529    
    y[2,3,3]  CON21     1.000000    
    y[2,4,1]  OBJ       9.226804      CON10     0.922895    
    y[2,4,1]  CON22     1.000000    
    y[2,4,2]  OBJ       9.876527      CON11     0.634236    
    y[2,4,2]  CON23     1.000000    
    y[2,4,3]  OBJ       5.634110      CON12     1.115210    
    y[2,4,3]  CON24     1.000000    
    z[1,1]    OBJ       721.636861    CON13     1.000000    
    z[1,2]    OBJ       945.788869    CON14     1.000000    
    z[1,3]    OBJ       968.702611    CON15     1.000000    
    z[2,1]    OBJ       768.335163    CON16     1.000000    
    z[2,2]    OBJ       649.775074    CON17     1.000000    
    z[2,3]    OBJ       606.292726    CON18     1.000000    
    z[3,1]    OBJ       719.397812    CON19     1.000000    
    z[3,2]    OBJ       508.875961    CON20     1.000000    
    z[3,3]    OBJ       948.196177    CON21     1.000000    
    z[4,1]    OBJ       930.866232    CON22     1.000000    
    z[4,2]    OBJ       977.045666    CON23     1.000000    
    z[4,3]    OBJ       525.383702    CON24     1.000000    
    MARKER    'MARKER'                 'INTEND'
RHS
    RHS       CON1      -0.000000     CON2      -0.000000   
    RHS       CON3      -0.000000     CON4      -0.000000   
    RHS       CON5      -0.000000     CON6      -0.000000   
    RHS       CON7      -0.000000     CON8      -0.000000   
    RHS       CON9      -0.000000     CON10     -0.000000   
    RHS       CON11     -0.000000     CON12     -0.000000   
    RHS       CON13     1.000000      CON14     1.000000    
    RHS       CON15     1.000000      CON16     1.000000    
    RHS       CON17     1.000000      CON18     1.000000    
    RHS       CON19     1.000000      CON20     1.000000    
    RHS       CON21     1.000000      CON22     1.000000    
    RHS       CON23     1.000000      CON24     1.000000    
BOUNDS
 BV BOUND     u[1,1]  
 BV BOUND     u[1,2]  
 BV BOUND     u[1,3]  
 BV BOUND     u[2,1]  
 BV BOUND     u[2,2]  
 BV BOUND     u[2,3]  
 BV BOUND     y[1,1,1]
 BV BOUND     y[1,1,2]
 BV BOUND     y[1,1,3]
 BV BOUND     y[1,2,1]
 BV BOUND     y[1,2,2]
 BV BOUND     y[1,2,3]
 BV BOUND     y[1,3,1]
 BV BOUND     y[1,3,2]
 BV BOUND     y[1,3,3]
 BV BOUND     y[1,4,1]
 BV BOUND     y[1,4,2]
 BV BOUND     y[1,4,3]
 BV BOUND     y[2,1,1]
 BV BOUND     y[2,1,2]
 BV BOUND     y[2,1,3]
 BV BOUND     y[2,2,1]
 BV BOUND     y[2,2,2]
 BV BOUND     y[2,2,3]
 BV BOUND     y[2,3,1]
 BV BOUND     y[2,3,2]
 BV BOUND     y[2,3,3]
 BV BOUND     y[2,4,1]
 BV BOUND     y[2,4,2]
 BV BOUND     y[2,4,3]
 BV BOUND     z[1,1]  
 BV BOUND     z[1,2]  
 BV BOUND     z[1,3]  
 BV BOUND     z[2,1]  
 BV BOUND     z[2,2]  
 BV BOUND     z[2,3]  
 BV BOUND     z[3,1]  
 BV BOUND     z[3,2]  
 BV BOUND     z[3,3]  
 BV BOUND     z[4,1]  
 BV BOUND     z[4,2]  
 BV BOUND     z[4,3]  
ENDATA
